(set-info :smt-lib-version 2.6)
(set-logic UF)
(set-info :source |Benchmarks from the paper: "Extending Sledgehammer with SMT Solvers" by Jasmin Blanchette, Sascha Bohme, and Lawrence C. Paulson, CADE 2011.  Translated to SMT2 by Andrew Reynolds and Morgan Deters.|)
(set-info :category "industrial")
(set-info :status unknown)
(declare-sort S1 0)
(declare-sort S2 0)
(declare-sort S3 0)
(declare-sort S4 0)
(declare-sort S5 0)
(declare-sort S6 0)
(declare-sort S7 0)
(declare-sort S8 0)
(declare-sort S9 0)
(declare-sort S10 0)
(declare-sort S11 0)
(declare-sort S12 0)
(declare-sort S13 0)
(declare-sort S14 0)
(declare-sort S15 0)
(declare-sort S16 0)
(declare-sort S17 0)
(declare-sort S18 0)
(declare-sort S19 0)
(declare-sort S20 0)
(declare-sort S21 0)
(declare-sort S22 0)
(declare-sort S23 0)
(declare-sort S24 0)
(declare-sort S25 0)
(declare-fun f1 () S1)
(declare-fun f2 () S1)
(declare-fun f3 (S2 S3) S4)
(declare-fun f4 (S5 S4) S2)
(declare-fun f5 () S5)
(declare-fun f6 (S6 S7) S4)
(declare-fun f7 () S6)
(declare-fun f8 (S8 S7) S7)
(declare-fun f9 (S9 S7) S8)
(declare-fun f10 () S9)
(declare-fun f11 () S9)
(declare-fun f12 (S10 S11) S7)
(declare-fun f13 () S10)
(declare-fun f14 (S12 S11) S11)
(declare-fun f15 () S12)
(declare-fun f16 () S12)
(declare-fun f17 () S11)
(declare-fun f18 () S7)
(declare-fun f19 (S13 S3) S7)
(declare-fun f20 () S13)
(declare-fun f21 (S14 S3) S3)
(declare-fun f22 (S15 S3) S14)
(declare-fun f23 () S15)
(declare-fun f24 () S3)
(declare-fun f25 () S3)
(declare-fun f26 () S3)
(declare-fun f27 (S3 S3) S1)
(declare-fun f28 () S3)
(declare-fun f29 () S2)
(declare-fun f30 (S7 S7) S1)
(declare-fun f31 () S7)
(declare-fun f32 (S16 S7) S13)
(declare-fun f33 () S16)
(declare-fun f34 (S17 S11) S3)
(declare-fun f35 () S17)
(declare-fun f36 () S15)
(declare-fun f37 (S18 S11) S4)
(declare-fun f38 () S18)
(declare-fun f39 (S19 S4) S4)
(declare-fun f40 (S20 S4) S19)
(declare-fun f41 () S20)
(declare-fun f42 (S21 S3) S11)
(declare-fun f43 (S22 S11) S21)
(declare-fun f44 () S22)
(declare-fun f45 () S12)
(declare-fun f46 (S23 S11) S12)
(declare-fun f47 () S23)
(declare-fun f48 () S4)
(declare-fun f49 () S11)
(declare-fun f50 (S11 S11) S1)
(declare-fun f51 (S25 S3) S1)
(declare-fun f52 (S24 S3) S25)
(assert (not (= f1 f2)))
(assert (let ((?v_1 (f9 f10 (f8 (f9 f11 (f12 f13 (f14 f15 (f14 f16 f17)))) f18))) (?v_0 (f22 f23 f24))) (not (= (f3 (f4 f5 (f6 f7 (f8 ?v_1 (f19 f20 (f21 ?v_0 f25))))) (f21 ?v_0 f26)) (f3 (f4 f5 (f6 f7 (f8 ?v_1 (f19 f20 f25)))) f26)))))
(assert (= (f27 f28 f24) f1))
(assert (forall ((?v0 S3)) (= (f3 f29 ?v0) (f6 f7 (f8 (f9 f10 (f8 (f9 f11 (f12 f13 (f14 f15 (f14 f16 f17)))) f18)) (f19 f20 ?v0))))))
(assert (forall ((?v0 S7)) (= (= (f30 f31 (f8 (f9 f10 ?v0) (f12 f13 (f14 f15 (f14 f16 f17))))) f1) (= (f30 f31 ?v0) f1))))
(assert (forall ((?v0 S7)) (=> (= (f30 f31 ?v0) f1) (= (f30 f31 (f8 (f9 f10 ?v0) (f12 f13 (f14 f15 (f14 f16 f17))))) f1))))
(assert (let ((?v_0 (f12 f13 (f14 f15 (f14 f16 f17))))) (not (= (f8 (f9 f10 f18) ?v_0) ?v_0))))
(assert (forall ((?v0 S7) (?v1 S7) (?v2 S7)) (let ((?v_0 (f9 f11 (f12 f13 (f14 f15 (f14 f16 f17))))) (?v_1 (f9 f10 ?v1))) (= (= ?v0 (f8 ?v_1 (f8 ?v_0 ?v2))) (= (f8 ?v_0 ?v0) (f8 ?v_1 ?v2))))))
(assert (forall ((?v0 S11)) (let ((?v_0 (f12 f13 ?v0))) (= (f19 (f32 f33 ?v_0) (f34 f35 (f14 f15 (f14 f16 f17)))) (f8 (f9 f11 ?v_0) ?v_0)))))
(assert (forall ((?v0 S11)) (let ((?v_0 (f34 f35 ?v0))) (= (f21 (f22 f36 ?v_0) (f34 f35 (f14 f15 (f14 f16 f17)))) (f21 (f22 f23 ?v_0) ?v_0)))))
(assert (forall ((?v0 S11)) (let ((?v_0 (f37 f38 ?v0))) (= (f3 (f4 f5 ?v_0) (f34 f35 (f14 f15 (f14 f16 f17)))) (f39 (f40 f41 ?v_0) ?v_0)))))
(assert (forall ((?v0 S11)) (let ((?v_0 (f14 f45 ?v0))) (= (f42 (f43 f44 ?v_0) (f34 f35 (f14 f15 (f14 f16 f17)))) (f14 (f46 f47 ?v_0) ?v_0)))))
(assert (forall ((?v0 S3)) (=> (= (f27 ?v0 f28) f1) false)))
(assert (forall ((?v0 S7) (?v1 S7) (?v2 S11)) (let ((?v_0 (f12 f13 ?v2))) (let ((?v_1 (f8 (f9 f11 ?v0) ?v_0))) (= (= (f30 ?v0 (f8 (f9 f10 ?v1) ?v_0)) f1) (ite (= (f30 f31 ?v_0) f1) (= (f30 ?v_1 ?v1) f1) (ite (= (f30 ?v_0 f31) f1) (= (f30 ?v1 ?v_1) f1) (= (f30 ?v0 f31) f1))))))))
(assert (forall ((?v0 S11) (?v1 S7) (?v2 S7)) (let ((?v_0 (f12 f13 ?v0))) (let ((?v_1 (f8 (f9 f11 ?v_0) ?v2))) (= (= (f30 ?v_0 (f8 (f9 f10 ?v1) ?v2)) f1) (ite (= (f30 f31 ?v2) f1) (= (f30 ?v_1 ?v1) f1) (ite (= (f30 ?v2 f31) f1) (= (f30 ?v1 ?v_1) f1) (= (f30 ?v_0 f31) f1))))))))
(assert (forall ((?v0 S7) (?v1 S7) (?v2 S11)) (let ((?v_0 (f12 f13 ?v2))) (let ((?v_1 (f8 (f9 f11 ?v_0) ?v1))) (= (= (f30 (f8 (f9 f10 ?v0) ?v1) ?v_0) f1) (ite (= (f30 f31 ?v1) f1) (= (f30 ?v0 ?v_1) f1) (ite (= (f30 ?v1 f31) f1) (= (f30 ?v_1 ?v0) f1) (= (f30 f31 ?v_0) f1))))))))
(assert (forall ((?v0 S7) (?v1 S11) (?v2 S7)) (let ((?v_0 (f12 f13 ?v1))) (let ((?v_1 (f8 (f9 f11 ?v2) ?v_0))) (= (= (f30 (f8 (f9 f10 ?v0) ?v_0) ?v2) f1) (ite (= (f30 f31 ?v_0) f1) (= (f30 ?v0 ?v_1) f1) (ite (= (f30 ?v_0 f31) f1) (= (f30 ?v_1 ?v0) f1) (= (f30 f31 ?v2) f1))))))))
(assert (forall ((?v0 S7) (?v1 S3)) (= (f3 (f4 f5 (f6 f7 ?v0)) ?v1) (f6 f7 (f8 (f9 f11 (f19 f20 ?v1)) ?v0)))))
(assert (not (= (f30 f18 f31) f1)))
(assert (forall ((?v0 S3)) (not (= (f3 f29 ?v0) f48))))
(assert (= (f30 f31 f18) f1))
(assert (= f49 (f14 f45 f17)))
(assert (= (= (f50 f17 f49) f1) false))
(assert (forall ((?v0 S11)) (= (= (f50 (f14 f15 ?v0) f49) f1) (= (f50 ?v0 f49) f1))))
(assert (forall ((?v0 S11)) (= (= (f50 (f14 f16 ?v0) f49) f1) (= (f50 ?v0 f49) f1))))
(assert (forall ((?v0 S11)) (= (f14 (f46 f47 f17) ?v0) f17)))
(assert (forall ((?v0 S11) (?v1 S11)) (= (= (f50 (f14 f16 ?v0) (f14 f16 ?v1)) f1) (= (f50 ?v0 ?v1) f1))))
(assert (forall ((?v0 S11) (?v1 S11)) (= (= (f50 (f14 f16 ?v0) (f14 f16 ?v1)) f1) (= (f50 ?v0 ?v1) f1))))
(assert (forall ((?v0 S11) (?v1 S3) (?v2 S3)) (let ((?v_0 (f43 f44 ?v0))) (= (f42 (f43 f44 (f42 ?v_0 ?v1)) ?v2) (f42 ?v_0 (f21 (f22 f23 ?v1) ?v2))))))
(assert (= (= (f50 f17 f17) f1) false))
(assert (forall ((?v0 S11) (?v1 S11)) (= (f14 (f46 f47 (f14 f15 ?v0)) ?v1) (f14 f15 (f14 (f46 f47 ?v0) ?v1)))))
(assert (forall ((?v0 S11) (?v1 S11)) (= (= (f50 (f14 f15 ?v0) (f14 f15 ?v1)) f1) (= (f50 ?v0 ?v1) f1))))
(assert (forall ((?v0 S11) (?v1 S11)) (= (= (f50 (f14 f15 ?v0) (f14 f15 ?v1)) f1) (= (f50 ?v0 ?v1) f1))))
(assert (= f17 f49))
(assert (forall ((?v0 S11) (?v1 S11)) (= (= (f27 (f34 f35 ?v0) (f34 f35 ?v1)) f1) (ite (= (f50 ?v0 ?v1) f1) (= (f50 f17 ?v1) f1) false))))
(assert (not (= f18 f31)))
(assert (forall ((?v0 S11) (?v1 S11) (?v2 S3)) (= (f21 (f22 f23 (f34 f35 ?v0)) (f21 (f22 f23 (f34 f35 ?v1)) ?v2)) (ite (= (f50 ?v0 f17) f1) f28 (f21 (f22 f23 (f34 f35 (f14 (f46 f47 ?v0) ?v1))) ?v2)))))
(assert (forall ((?v0 S11) (?v1 S11)) (= (f21 (f22 f23 (f34 f35 ?v0)) (f34 f35 ?v1)) (ite (= (f50 ?v0 f17) f1) f28 (f34 f35 (f14 (f46 f47 ?v0) ?v1))))))
(assert (forall ((?v0 S11)) (= (= (f27 f28 (f34 f35 ?v0)) f1) (= (f50 f17 ?v0) f1))))
(assert (= (f34 f35 f17) f28))
(assert (= f28 (f34 f35 f17)))
(assert (forall ((?v0 S11)) (= (= (f50 (f14 f16 ?v0) f17) f1) (= (f50 ?v0 f17) f1))))
(assert (forall ((?v0 S11) (?v1 S11)) (= (= (f50 (f14 f16 ?v0) (f14 f15 ?v1)) f1) (= (f50 ?v0 ?v1) f1))))
(assert (forall ((?v0 S11) (?v1 S11)) (= (= (f50 (f14 f16 ?v0) (f14 f15 ?v1)) f1) (= (f50 ?v0 ?v1) f1))))
(assert (forall ((?v0 S11)) (= (= (f50 (f14 f15 ?v0) f17) f1) (= (f50 ?v0 f17) f1))))
(assert (forall ((?v0 S11)) (= (= (f50 f17 (f14 f15 ?v0)) f1) (= (f50 f17 ?v0) f1))))
(assert (= (f30 f31 (f8 (f9 f10 f18) (f12 f13 (f14 f15 (f14 f16 f17))))) f1))
(assert (forall ((?v0 S7)) (= (f19 (f32 f33 ?v0) (f34 f35 (f14 f16 (f14 f16 f17)))) (f8 (f9 f11 (f8 (f9 f11 ?v0) ?v0)) ?v0))))
(assert (forall ((?v0 S3)) (= (f21 (f22 f36 ?v0) (f34 f35 (f14 f16 (f14 f16 f17)))) (f21 (f22 f23 (f21 (f22 f23 ?v0) ?v0)) ?v0))))
(assert (forall ((?v0 S4)) (= (f3 (f4 f5 ?v0) (f34 f35 (f14 f16 (f14 f16 f17)))) (f39 (f40 f41 (f39 (f40 f41 ?v0) ?v0)) ?v0))))
(assert (forall ((?v0 S11)) (= (f42 (f43 f44 ?v0) (f34 f35 (f14 f16 (f14 f16 f17)))) (f14 (f46 f47 (f14 (f46 f47 ?v0) ?v0)) ?v0))))
(assert (forall ((?v0 S11) (?v1 S11)) (= (= (f37 f38 ?v0) (f37 f38 ?v1)) (= ?v0 ?v1))))
(assert (forall ((?v0 S11) (?v1 S11)) (= (= (f12 f13 ?v0) (f12 f13 ?v1)) (= ?v0 ?v1))))
(assert (forall ((?v0 S11) (?v1 S11)) (= (= (f14 f45 ?v0) (f14 f45 ?v1)) (= ?v0 ?v1))))
(assert (forall ((?v0 S11) (?v1 S4)) (let ((?v_0 (f37 f38 ?v0))) (= (= ?v_0 ?v1) (= ?v1 ?v_0)))))
(assert (forall ((?v0 S11) (?v1 S7)) (let ((?v_0 (f12 f13 ?v0))) (= (= ?v_0 ?v1) (= ?v1 ?v_0)))))
(assert (forall ((?v0 S11) (?v1 S11)) (let ((?v_0 (f14 f45 ?v0))) (= (= ?v_0 ?v1) (= ?v1 ?v_0)))))
(assert (forall ((?v0 S11) (?v1 S3)) (let ((?v_0 (f34 f35 ?v0))) (= (= ?v_0 ?v1) (= ?v1 ?v_0)))))
(assert (forall ((?v0 S11) (?v1 S11)) (= (= (f14 f16 ?v0) (f14 f16 ?v1)) (= ?v0 ?v1))))
(assert (= (= f17 f17) true))
(assert (forall ((?v0 S11) (?v1 S11)) (= (= (f14 f15 ?v0) (f14 f15 ?v1)) (= ?v0 ?v1))))
(assert (forall ((?v0 S3) (?v1 S3) (?v2 S24)) (let ((?v_0 (= (f51 (f52 ?v2 ?v1) ?v0) f1))) (=> (=> (= (f27 ?v0 ?v1) f1) ?v_0) (=> (=> (= ?v0 ?v1) ?v_0) (=> (=> (= (f27 ?v1 ?v0) f1) ?v_0) ?v_0))))))
(assert (forall ((?v0 S3) (?v1 S3)) (=> (= (f27 ?v0 ?v1) f1) (not (= ?v0 ?v1)))))
(assert (forall ((?v0 S3) (?v1 S3)) (=> (= (f27 ?v0 ?v1) f1) (not (= ?v1 ?v0)))))
(assert (forall ((?v0 S3)) (=> (= (f27 ?v0 ?v0) f1) false)))
(assert (forall ((?v0 S3) (?v1 S3)) (=> (not (= ?v0 ?v1)) (=> (=> (= (f27 ?v0 ?v1) f1) false) (=> (=> (= (f27 ?v1 ?v0) f1) false) false)))))
(assert (forall ((?v0 S3) (?v1 S3)) (= (not (= ?v0 ?v1)) (or (= (f27 ?v0 ?v1) f1) (= (f27 ?v1 ?v0) f1)))))
(assert (forall ((?v0 S3)) (not (= (f27 ?v0 ?v0) f1))))
(assert (forall ((?v0 S3) (?v1 S3) (?v2 S3)) (let ((?v_0 (f22 f23 ?v0))) (= (f21 (f22 f23 (f21 ?v_0 ?v1)) ?v2) (f21 ?v_0 (f21 (f22 f23 ?v1) ?v2))))))
(assert (forall ((?v0 S3) (?v1 S3)) (= (f21 (f22 f23 ?v0) ?v1) (f21 (f22 f23 ?v1) ?v0))))
(assert (forall ((?v0 S11)) (= (= (f42 (f43 f44 ?v0) (f34 f35 (f14 f15 (f14 f16 f17)))) f49) (= ?v0 f49))))
(assert (forall ((?v0 S7)) (= (= (f19 (f32 f33 ?v0) (f34 f35 (f14 f15 (f14 f16 f17)))) f31) (= ?v0 f31))))
(assert (forall ((?v0 S4)) (= (= (f3 (f4 f5 ?v0) (f34 f35 (f14 f15 (f14 f16 f17)))) f48) (= ?v0 f48))))
(assert (= (f21 (f22 f36 f28) (f34 f35 (f14 f15 (f14 f16 f17)))) f28))
(assert (= (f42 (f43 f44 f49) (f34 f35 (f14 f15 (f14 f16 f17)))) f49))
(assert (= (f19 (f32 f33 f31) (f34 f35 (f14 f15 (f14 f16 f17)))) f31))
(assert (= (f3 (f4 f5 f48) (f34 f35 (f14 f15 (f14 f16 f17)))) f48))
(assert (forall ((?v0 S7)) (= (f19 (f32 f33 ?v0) (f34 f35 (f14 f15 (f14 f16 f17)))) (f8 (f9 f11 ?v0) ?v0))))
(assert (forall ((?v0 S3)) (= (f21 (f22 f36 ?v0) (f34 f35 (f14 f15 (f14 f16 f17)))) (f21 (f22 f23 ?v0) ?v0))))
(assert (forall ((?v0 S4)) (= (f3 (f4 f5 ?v0) (f34 f35 (f14 f15 (f14 f16 f17)))) (f39 (f40 f41 ?v0) ?v0))))
(assert (forall ((?v0 S11)) (= (f42 (f43 f44 ?v0) (f34 f35 (f14 f15 (f14 f16 f17)))) (f14 (f46 f47 ?v0) ?v0))))
(assert (forall ((?v0 S7) (?v1 S3)) (let ((?v_1 (f34 f35 (f14 f15 (f14 f16 f17)))) (?v_0 (f32 f33 ?v0))) (= (f19 ?v_0 (f21 (f22 f23 ?v_1) ?v1)) (f19 (f32 f33 (f19 ?v_0 ?v1)) ?v_1)))))
(assert (forall ((?v0 S3) (?v1 S3)) (let ((?v_1 (f34 f35 (f14 f15 (f14 f16 f17)))) (?v_0 (f22 f36 ?v0))) (= (f21 ?v_0 (f21 (f22 f23 ?v_1) ?v1)) (f21 (f22 f36 (f21 ?v_0 ?v1)) ?v_1)))))
(assert (forall ((?v0 S4) (?v1 S3)) (let ((?v_1 (f34 f35 (f14 f15 (f14 f16 f17)))) (?v_0 (f4 f5 ?v0))) (= (f3 ?v_0 (f21 (f22 f23 ?v_1) ?v1)) (f3 (f4 f5 (f3 ?v_0 ?v1)) ?v_1)))))
(assert (forall ((?v0 S11) (?v1 S3)) (let ((?v_1 (f34 f35 (f14 f15 (f14 f16 f17)))) (?v_0 (f43 f44 ?v0))) (= (f42 ?v_0 (f21 (f22 f23 ?v_1) ?v1)) (f42 (f43 f44 (f42 ?v_0 ?v1)) ?v_1)))))
(assert (= (f30 f18 (f12 f13 (f14 f15 (f14 f15 (f14 f16 f17))))) f1))
(assert (forall ((?v0 S11)) (= (= (f50 f49 (f42 (f43 f44 ?v0) (f34 f35 (f14 f15 (f14 f16 f17))))) f1) (not (= ?v0 f49)))))
(assert (forall ((?v0 S7)) (= (= (f30 f31 (f19 (f32 f33 ?v0) (f34 f35 (f14 f15 (f14 f16 f17))))) f1) (not (= ?v0 f31)))))
(assert (forall ((?v0 S11)) (not (= (f50 (f42 (f43 f44 ?v0) (f34 f35 (f14 f15 (f14 f16 f17)))) f49) f1))))
(assert (forall ((?v0 S7)) (not (= (f30 (f19 (f32 f33 ?v0) (f34 f35 (f14 f15 (f14 f16 f17)))) f31) f1))))
(check-sat)
(exit)
